*SENSE:Minimize
NAME          MODEL
ROWS
 N  OBJ
 L  C0000000
 L  C0000001
 L  C0000002
 E  C0000003
 E  C0000004
 E  C0000005
 E  C0000006
COLUMNS
    X0000000  C0000000   1.000000000000e+00
    X0000000  C0000003   1.000000000000e+00
    X0000000  OBJ        4.000000000000e+00
    X0000001  C0000000   1.000000000000e+00
    X0000001  C0000004   1.000000000000e+00
    X0000001  OBJ        3.000000000000e+00
    X0000002  C0000000   1.000000000000e+00
    X0000002  C0000005   1.000000000000e+00
    X0000002  OBJ        2.000000000000e+00
    X0000003  C0000000   1.000000000000e+00
    X0000003  C0000006   1.000000000000e+00
    X0000004  C0000001   1.000000000000e+00
    X0000004  C0000003   1.000000000000e+00
    X0000004  OBJ        4.000000000000e+00
    X0000005  C0000001   1.000000000000e+00
    X0000005  C0000004   1.000000000000e+00
    X0000005  OBJ        1.000000000000e+00
    X0000006  C0000001   1.000000000000e+00
    X0000006  C0000005   1.000000000000e+00
    X0000006  OBJ        inf
    X0000007  C0000001   1.000000000000e+00
    X0000007  C0000006   1.000000000000e+00
    X0000007  OBJ        6.000000000000e+00
    X0000008  C0000002   1.000000000000e+00
    X0000008  C0000003   1.000000000000e+00
    X0000008  OBJ        3.000000000000e+00
    X0000009  C0000002   1.000000000000e+00
    X0000009  C0000004   1.000000000000e+00
    X0000010  C0000002   1.000000000000e+00
    X0000010  C0000005   1.000000000000e+00
    X0000010  OBJ        1.000000000000e+00
    X0000011  C0000002   1.000000000000e+00
    X0000011  C0000006   1.000000000000e+00
    X0000011  OBJ        2.000000000000e+00
RHS
    RHS       C0000000   2.000000000000e+02
    RHS       C0000001   3.000000000000e+02
    RHS       C0000002   5.000000000000e+02
    RHS       C0000003   1.000000000000e+02
    RHS       C0000004   6.000000000000e+01
    RHS       C0000005   1.300000000000e+02
    RHS       C0000006   3.000000000000e+02
BOUNDS
ENDATA
